Route #1: 5 15 6 1 7 16 21 27 26 20 25 35 47 65 70 81 76 95 88 96 82 89 97 90 77 71 66 55 54 40 36 37 41 48 59 67 60 49 42 43 44 45 50 51 46 33 24 23 32 31 22 38 30 29 28 17 18 12 8 9 2 3 13 10 4 11 14 19 34 39 53 58 52 57 64 63 73 79 69 56 62 61 68 72 78 83 91 92 98 84 93 99 100 85 86 80 74 75 87 94
Cost 46704
